words_hard_train/3331.qaiger
aag 30 11 0 1 19
2
4
8
10
16
20
22
26
42
46
48
60
6 3 5
12 8 10
14 7 13
18 14 16
24 20 22
28 24 26
30 2 4
32 29 31
34 18 33
36 9 11
38 35 37
40 17 10
44 43 23
50 47 49
52 44 50
54 40 52
56 54 27
58 56 5
60 38 59
i0 1 x2[5]
i1 2 y1[5]
i2 1 x2[7]
i3 2 y1[7]
i4 2 y1[6]
i5 1 x2[3]
i6 2 y1[3]
i7 2 y1[4]
i8 2 y1[2]
i9 2 y1[0]
i10 2 y1[1]
o0 bv[0]
c
simplified
  <
    and
      168
      1 x2
    add
      invert
        2 y1
      1
