words_hard_train/3331.qaiger.qdimacs
p cnf 30 58
a 1 10 4 0
e 2 3 5 6 7 8 9 11 12 13 14 15 16 17 18 19 20 21 22 23 24 25 26 27 28 29 30 0
1 2 3 0
-1 -3 0
-2 -3 0
-4 -5 6 0
4 -6 0
5 -6 0
3 6 7 0
-3 -7 0
-6 -7 0
-7 -8 9 0
7 -9 0
8 -9 0
-10 -11 12 0
10 -12 0
11 -12 0
-12 -13 14 0
12 -14 0
13 -14 0
-1 -2 15 0
1 -15 0
2 -15 0
14 15 16 0
-14 -16 0
-15 -16 0
-9 16 17 0
9 -17 0
-16 -17 0
4 5 18 0
-4 -18 0
-5 -18 0
17 18 19 0
-17 -19 0
-18 -19 0
8 -5 20 0
-8 -20 0
5 -20 0
21 11 22 0
-21 -22 0
-11 -22 0
23 24 25 0
-23 -25 0
-24 -25 0
-22 -25 26 0
22 -26 0
25 -26 0
-20 -26 27 0
20 -27 0
26 -27 0
-27 13 28 0
27 -28 0
-13 -28 0
-28 2 29 0
28 -29 0
-2 -29 0
-19 29 30 0
19 -30 0
-29 -30 0
30 0
